<number of tasks>
30

<cycle time>
33

<task times>
1 8
2 7
3 19
4 10
5 2
6 6
7 14
8 10
9 1
10 4
11 14
12 15
13 5
14 12
15 9
16 10
17 2
18 10
19 18
20 16
21 21
22 14
23 16
24 7
25 17
26 9
27 25
28 7
29 14
30 2

<precedence relations>
1,4
1,5
2,11
2,12
3,16
3,17
4,7
5,6
6,7
7,8
8,9
9,26
10,24
12,13
13,14
14,15
14,20
15,22
16,20
17,18
18,19
20,21
20,24
21,22
22,23
23,27
24,25
25,26
26,27
27,28
27,29
29,30

<setup times forward>
1,3:4
1,4:5
1,5:6
1,10:6
1,11:8
1,12:5
1,13:3
1,14:3
1,15:4
1,16:2
1,17:4
1,18:4
1,20:3
1,21:6
1,22:7
1,23:7
1,24:1
1,25:1
2,3:4
2,4:5
2,5:6
2,6:6
2,7:4
2,8:4
2,9:7
2,10:6
2,11:8
2,12:5
2,16:2
2,17:4
2,18:4
3,1:4
3,2:4
3,4:1
3,5:2
3,6:2
3,9:3
3,10:2
3,11:4
3,12:1
3,13:1
3,14:1
3,16:2
4,2:5
4,3:1
4,5:1
4,6:1
4,7:1
4,10:1
4,11:3
4,13:2
4,14:2
4,15:1
4,16:3
4,17:1
4,18:1
4,19:5
4,20:2
4,21:1
4,22:2
4,23:2
4,24:4
4,25:4
5,2:6
5,3:2
5,4:1
5,11:2
5,12:1
5,13:3
5,14:3
5,15:2
5,16:4
5,17:2
5,18:2
5,19:6
5,20:3
5,22:1
5,23:1
5,24:5
5,25:5
6,2:6
6,3:2
6,4:1
6,7:2
6,11:2
6,12:1
6,13:3
6,14:3
6,15:2
6,16:4
6,17:2
6,18:2
6,19:6
6,20:3
6,22:1
6,23:1
6,24:5
6,25:5
7,2:4
7,10:2
7,11:4
7,12:1
7,13:1
7,14:1
7,16:2
7,19:4
7,20:1
7,21:2
7,22:3
7,23:3
7,24:3
7,25:3
8,2:4
8,9:3
8,10:2
8,11:4
8,12:1
8,13:1
8,14:1
8,16:2
8,19:4
8,20:1
8,21:2
8,22:3
8,23:3
8,24:3
8,25:3
9,2:7
9,3:3
9,10:1
9,11:1
9,12:2
9,13:4
9,14:4
9,15:3
9,16:5
9,17:3
9,18:3
9,19:7
9,20:4
9,21:1
9,24:6
9,25:6
9,26:6
10,1:6
10,2:6
10,3:2
10,4:1
10,7:2
10,8:2
10,9:1
10,11:2
10,12:1
10,13:3
10,14:3
10,15:2
10,16:4
10,17:2
10,18:2
10,19:6
10,20:3
10,22:1
10,23:1
10,24:5
11,1:8
11,3:4
11,4:3
11,5:2
11,6:2
11,7:4
11,8:4
11,9:1
11,10:2
11,12:3
11,13:5
11,14:5
11,15:4
11,16:6
11,17:4
11,18:4
11,19:8
11,20:5
11,21:2
11,22:1
11,23:1
11,24:7
11,25:7
11,26:7
11,27:3
11,28:3
12,1:5
12,3:1
12,5:1
12,6:1
12,7:1
12,8:1
12,9:2
12,10:1
12,11:3
12,13:2
12,16:3
12,17:1
12,18:1
12,19:5
13,1:3
13,3:1
13,4:2
13,5:3
13,6:3
13,7:1
13,8:1
13,9:4
13,10:3
13,11:5
13,16:1
13,17:1
13,18:1
13,19:3
14,1:3
14,3:1
14,4:2
14,5:3
14,6:3
14,7:1
14,8:1
14,9:4
14,10:3
14,11:5
14,15:1
14,16:1
14,17:1
14,18:1
14,19:3
15,1:4
15,4:1
15,5:2
15,6:2
15,9:3
15,10:2
15,11:4
15,16:2
15,19:4
15,20:1
15,21:2
15,22:3
15,24:3
15,25:3
15,26:3
16,1:2
16,2:2
16,4:3
16,5:4
16,6:4
16,7:2
16,8:2
16,9:5
16,10:4
16,11:6
16,12:3
16,13:1
16,14:1
16,15:2
16,17:2
16,18:2
16,19:2
16,20:1
17,1:4
17,2:4
17,4:1
17,5:2
17,6:2
17,9:3
17,10:2
17,11:4
17,12:1
17,13:1
17,14:1
17,16:2
17,20:1
17,21:2
17,22:3
17,23:3
17,24:3
17,25:3
17,26:3
17,27:1
17,28:1
17,29:4
17,30:4
18,1:4
18,2:4
18,4:1
18,5:2
18,6:2
18,9:3
18,10:2
18,11:4
18,12:1
18,13:1
18,14:1
18,16:2
18,19:4
18,20:1
18,21:2
18,22:3
18,23:3
18,24:3
18,25:3
18,26:3
18,27:1
18,28:1
18,29:4
18,30:4
19,4:5
19,5:6
19,6:6
19,7:4
19,8:4
19,9:7
19,10:6
19,11:8
19,12:5
19,13:3
19,14:3
19,15:4
19,16:2
19,20:3
19,21:6
19,22:7
19,23:7
19,24:1
19,25:1
19,26:1
19,27:5
19,28:5
19,29:8
19,30:8
20,1:3
20,4:2
20,5:3
20,6:3
20,7:1
20,8:1
20,9:4
20,10:3
20,11:5
20,15:1
20,17:1
20,18:1
20,19:3
20,21:3
20,24:2
21,1:6
21,4:1
21,7:2
21,8:2
21,9:1
21,11:2
21,15:2
21,17:2
21,18:2
21,19:6
21,22:1
21,24:5
21,25:5
21,26:5
22,1:7
22,4:2
22,5:1
22,6:1
22,7:3
22,8:3
22,10:1
22,11:1
22,17:3
22,18:3
22,19:7
22,24:6
22,25:6
22,26:6
23,1:7
23,4:2
23,5:1
23,6:1
23,7:3
23,8:3
23,10:1
23,11:1
23,17:3
23,18:3
23,19:7
23,24:6
23,25:6
23,26:6
23,27:2
24,1:1
24,4:4
24,5:5
24,6:5
24,7:3
24,8:3
24,9:6
24,11:7
24,15:3
24,17:3
24,18:3
24,19:1
24,21:5
24,22:6
24,23:6
25,1:1
25,4:4
25,5:5
25,6:5
25,7:3
25,8:3
25,9:6
25,11:7
25,15:3
25,17:3
25,18:3
25,19:1
25,21:5
25,22:6
25,23:6
26,11:7
26,15:3
26,17:3
26,18:3
26,19:1
26,21:5
26,22:6
26,23:6
26,27:4
27,11:3
27,17:1
27,18:1
27,19:5
27,29:3
28,11:3
28,17:1
28,18:1
28,19:5
28,29:3
28,30:3
29,17:4
29,18:4
29,19:8
29,28:3
30,17:4
30,18:4
30,19:8
30,28:3

<setup times backward>
1,3:4
1,10:6
1,11:8
1,12:5
1,13:3
1,14:3
1,15:4
1,16:2
1,17:4
1,18:4
1,20:3
1,21:6
1,22:7
1,23:7
1,24:1
1,25:1
2,3:4
2,4:5
2,5:6
2,6:6
2,7:4
2,8:4
2,9:7
2,10:6
2,16:2
2,17:4
2,18:4
3,4:1
3,5:2
3,6:2
3,9:3
3,10:2
3,11:4
3,12:1
4,5:1
4,6:1
4,10:1
4,11:3
4,21:1
4,22:2
4,23:2
5,11:2
5,22:1
5,23:1
6,11:2
6,22:1
6,23:1
7,4:1
7,5:2
7,6:2
7,10:2
7,11:4
7,12:1
7,21:2
7,22:3
7,23:3
8,4:1
8,5:2
8,6:2
8,10:2
8,11:4
8,12:1
8,21:2
8,22:3
8,23:3
9,11:1
10,9:1
10,11:2
10,22:1
10,23:1
12,5:1
12,6:1
12,9:2
12,10:1
12,11:3
13,3:1
13,4:2
13,5:3
13,6:3
13,7:1
13,8:1
13,9:4
13,10:3
13,11:5
13,12:2
13,17:1
13,18:1
14,3:1
14,4:2
14,5:3
14,6:3
14,7:1
14,8:1
14,9:4
14,10:3
14,11:5
14,12:2
14,17:1
14,18:1
15,4:1
15,5:2
15,6:2
15,9:3
15,10:2
15,11:4
15,12:1
15,21:2
16,3:2
16,4:3
16,5:4
16,6:4
16,7:2
16,8:2
16,9:5
16,10:4
16,11:6
16,12:3
16,13:1
16,14:1
16,15:2
16,17:2
16,18:2
17,4:1
17,5:2
17,6:2
17,9:3
17,10:2
17,11:4
17,12:1
17,21:2
17,22:3
17,23:3
17,27:1
17,28:1
17,29:4
17,30:4
18,4:1
18,5:2
18,6:2
18,9:3
18,10:2
18,11:4
18,12:1
18,21:2
18,22:3
18,23:3
18,27:1
18,28:1
18,29:4
18,30:4
19,3:4
19,4:5
19,5:6
19,6:6
19,7:4
19,8:4
19,9:7
19,10:6
19,11:8
19,12:5
19,13:3
19,14:3
19,15:4
19,16:2
19,17:4
19,18:4
19,20:3
19,21:6
19,22:7
19,23:7
19,24:1
19,25:1
19,26:1
19,27:5
19,28:5
19,29:8
19,30:8
20,3:1
20,4:2
20,5:3
20,6:3
20,7:1
20,8:1
20,9:4
20,10:3
20,11:5
20,12:2
20,15:1
20,17:1
20,18:1
21,9:1
21,11:2
22,11:1
23,11:1
24,3:3
24,4:4
24,5:5
24,6:5
24,7:3
24,8:3
24,9:6
24,10:5
24,11:7
24,12:4
24,13:2
24,14:2
24,15:3
24,16:1
24,17:3
24,18:3
24,20:2
24,21:5
24,22:6
24,23:6
25,3:3
25,4:4
25,5:5
25,6:5
25,7:3
25,8:3
25,9:6
25,10:5
25,11:7
25,12:4
25,13:2
25,14:2
25,15:3
25,16:1
25,17:3
25,18:3
25,20:2
25,21:5
25,22:6
25,23:6
26,3:3
26,4:4
26,5:5
26,6:5
26,7:3
26,8:3
26,9:6
26,10:5
26,11:7
26,12:4
26,13:2
26,14:2
26,15:3
26,16:1
26,17:3
26,18:3
26,20:2
26,21:5
26,22:6
26,23:6
27,5:1
27,6:1
27,9:2
27,10:1
27,11:3
27,21:1
27,22:2
27,23:2
28,5:1
28,6:1
28,9:2
28,10:1
28,11:3
28,21:1
28,22:2
28,23:2
28,29:3
28,30:3

<end>

<optimal SALBP-1 value>
11


<rand seed>
467321153

